14 36 90
1 4 4
1 5 1
1 8 5
1 9 2
1 13 3
2 5 2
2 7 1
2 9 5
2 14 4
3 8 3
3 9 3
3 10 5
3 12 5
3 13 5
3 14 5
4 10 3
4 12 2
5 6 2
5 13 3
6 7 2
6 9 4
6 10 5
6 13 4
7 9 1
7 10 5
7 13 3
8 9 5
8 12 2
8 13 3
8 14 4
9 10 3
9 12 1
9 14 2
10 11 4
12 14 1
13 14 2
